c ren 1 -> 1
c ren 2 -> 2
c ren 3 -> 3
c ren 4 -> 4
c ren 5 -> 5
c ren 6 -> 6
c ren 7 -> 7
c ren 8 -> 8
c ren 9 -> 9
c ren 10 -> 10
c ren 11 -> 11
c ren 12 -> 12
c ren 13 -> 13
c ren 14 -> 14
c ren 15 -> 15
c ren 16 -> 16
c ren 17 -> 17
c ren 18 -> 18
c ren 19 -> 19
c ren 20 -> 20
c ren 21 -> 21
c ren 23 -> 22
c ren 25 -> 23
c ren 29 -> 24
c ren 38 -> 25
c ren 39 -> 26
c ren 42 -> 27
c ren 45 -> 28
c ren 48 -> 29
c ren 51 -> 30
c ren 55 -> 31
p cnf 31 64
a 1 2 3 4 5 6 7 8 9 10 11 12 13 14 15 16 17 0
d 18 2 5 0
d 19 16 17 0
d 20 12 14 0
d 21 2 5 0
e 22 23 24 25 26 27 28 29 30 31 0
2 5 -7 -22 0
-2 -5 7 22 0
2 -5 7 -22 0
-2 5 -7 22 0
-2 5 7 -22 0
-2 -5 -7 -22 0
2 5 7 22 0
2 -5 -7 22 0
-1 4 23 0
1 -4 23 0
-1 -4 -23 0
1 4 -23 0
2 7 -8 -9 10 -22 -23 -24 -25 0
-2 -5 -8 -9 -10 -22 -23 -24 -25 0
5 7 -8 -9 10 -22 -23 -24 -25 0
-7 -8 -9 -10 -22 -23 -24 -25 0
-2 -5 -8 9 -10 -22 -23 24 -25 0
-3 6 24 0
3 -6 24 0
-3 -6 -24 0
3 6 -24 0
5 7 -8 9 10 -22 -23 24 -25 0
-7 -8 9 -10 -22 -23 24 -25 0
-2 -5 8 -9 -10 -22 23 -24 -25 0
2 7 -8 9 10 -22 -23 24 -25 0
5 8 -9 10 -22 23 -24 -25 0
2 8 -9 10 -22 23 -24 -25 0
-2 -5 8 9 -10 -22 23 24 -25 0
5 8 9 10 -22 23 24 -25 0
2 8 9 10 -22 23 24 -25 0
22 25 0
-11 -23 26 0
11 23 26 0
-13 -24 27 0
13 24 27 0
3 10 -13 -14 -15 25 -26 -27 -28 -29 -30 -31 0
-12 -13 28 0
12 13 28 0
-16 -18 29 0
16 18 29 0
6 10 -13 -14 -15 25 -26 -27 -28 -29 -30 -31 0
-11 -17 30 0
11 17 30 0
15 19 21 31 0
-15 -21 31 0
-15 -19 31 0
-9 10 -14 -15 20 25 -26 -27 -28 -29 -30 -31 0
9 10 -14 -15 -20 25 -26 -27 -28 -29 -30 -31 0
-7 -8 14 15 -18 25 -26 -27 -28 -29 -30 -31 0
9 -10 -14 -15 20 25 -26 -27 -28 -29 -30 -31 0
-9 -10 -14 -15 -20 25 -26 -27 -28 -29 -30 -31 0
-7 -8 -11 14 15 25 -26 -27 -28 -29 -30 -31 0
7 8 14 15 -18 25 -26 -27 -28 -29 -30 -31 0
-7 8 11 14 15 18 25 -26 -27 -28 -29 -30 -31 0
-9 -10 14 15 -20 25 -26 -27 -28 -29 -30 -31 0
3 -9 -10 14 15 25 -26 -27 -28 -29 -30 -31 0
9 -10 14 15 20 25 -26 -27 -28 -29 -30 -31 0
9 10 14 15 -20 25 -26 -27 -28 -29 -30 -31 0
-9 10 14 15 20 25 -26 -27 -28 -29 -30 -31 0
7 8 -14 -15 -18 25 -26 -27 -28 -29 -30 -31 0
-7 8 11 -14 -15 18 25 -26 -27 -28 -29 -30 -31 0
6 -9 -10 14 15 25 -26 -27 -28 -29 -30 -31 0
-7 -8 -14 -15 -18 25 -26 -27 -28 -29 -30 -31 0
-7 -8 -11 -14 -15 25 -26 -27 -28 -29 -30 -31 0
